
Gurobi 7.0.2 (win64, Python) logging started 03/02/18 14:18:09


Gurobi 7.0.2 (win64, Python) logging started 03/02/18 15:53:58


Gurobi 7.0.2 (win64, Python) logging started 03/02/18 21:16:40


Gurobi 7.0.2 (win64, Python) logging started 03/02/18 21:52:38


Gurobi 7.0.2 (win64, Python) logging started 03/02/18 23:03:11


Gurobi 7.0.2 (win64, Python) logging started 03/03/18 14:13:39


Gurobi 7.0.2 (win64, Python) logging started 03/03/18 18:58:39


Gurobi 7.0.2 (win64, Python) logging started 03/03/18 22:00:41


Gurobi 7.0.2 (win64, Python) logging started 03/04/18 09:00:34


Gurobi 7.0.2 (win64, Python) logging started 03/04/18 17:16:05

